p cnf 271 983
1 -2 0
2 -1 0
3 -4 0
4 -3 0
5 -6 0
6 -5 0
7 -8 0
8 -7 0
9 -10 0
10 -9 0
11 -12 0
12 -11 0
13 -14 0
14 -13 0
15 -16 0
16 -15 0
17 -18 0
18 -17 0
19 -20 0
20 -19 0
21 -22 0
22 -21 0
23 -24 0
24 -23 0
25 -26 0
26 -25 0
27 -28 0
28 -27 0
29 -30 0
30 -29 0
31 -32 0
32 -31 0
33 -34 0
34 -33 0
35 -36 0
36 -35 0
37 -38 0
38 -37 0
39 -40 0
40 -39 0
41 -42 0
42 -41 0
43 -44 0
44 -43 0
45 -46 0
46 -45 0
47 -48 0
48 -47 0
49 -50 0
50 -49 0
51 -52 0
52 -51 0
53 -54 0
54 -53 0
55 -56 0
56 -55 0
57 -58 0
58 -57 0
59 -60 0
60 -59 0
61 -62 0
62 -61 0
63 -64 0
64 -63 0
65 -66 0
66 -65 0
67 -68 0
68 -67 0
69 -70 0
70 -69 0
71 -72 0
72 -71 0
73 -74 0
74 -73 0
75 -76 0
76 -75 0
77 -78 0
78 -77 0
79 -80 0
80 -79 0
81 -82 0
82 -81 0
83 -84 0
84 -83 0
85 -86 0
86 -85 0
87 -88 0
88 -87 0
89 -90 0
90 -89 0
91 -92 0
92 -91 0
93 -94 0
94 -93 0
95 -96 0
96 -95 0
97 -98 0
98 -97 0
99 -100 0
100 -99 0
101 -102 0
102 -101 0
103 -104 0
104 -103 0
105 -106 0
106 -105 0
107 -108 0
108 -107 0
109 -110 0
110 -109 0
111 -112 0
112 -111 0
113 -114 0
114 -113 0
115 -116 0
116 -115 0
117 -118 0
118 -117 0
119 -120 0
120 -119 0
121 -122 0
122 -121 0
123 -124 0
124 -123 0
-125 -121 123 0
121 -123 -125 0
-123 -121 125 0
121 125 123 0
-125 0
-126 103 -71 0
-126 -103 71 0
126 -103 -71 0
126 71 103 0
107 -75 -127 0
-107 75 -127 0
-107 127 -75 0
127 107 75 0
105 -128 -73 0
-128 -105 73 0
-105 128 -73 0
105 128 73 0
3 -1 -129 0
-3 1 -129 0
-3 -1 129 0
3 1 129 0
-13 15 -130 0
13 -15 -130 0
-13 -15 130 0
13 15 130 0
-131 111 -79 0
-131 -111 79 0
131 -111 -79 0
131 111 79 0
109 -77 -132 0
-109 77 -132 0
-109 -77 132 0
77 109 132 0
115 -83 -133 0
-115 -133 83 0
-83 -115 133 0
115 133 83 0
113 -134 -81 0
81 -113 -134 0
-113 134 -81 0
113 81 134 0
-57 -135 89 0
57 -89 -135 0
-57 -89 135 0
57 135 89 0
-63 95 -136 0
-95 63 -136 0
-63 -95 136 0
95 63 136 0
-61 93 -137 0
-93 61 -137 0
-61 137 -93 0
93 137 61 0
-59 91 -138 0
-91 59 -138 0
-59 138 -91 0
138 59 91 0
117 -85 -139 0
85 -117 -139 0
139 -117 -85 0
85 139 117 0
119 -87 -140 0
87 -140 -119 0
-87 140 -119 0
87 119 140 0
-141 101 -69 0
-141 69 -101 0
141 -69 -101 0
141 69 101 0
-142 99 -67 0
-142 -99 67 0
-99 -67 142 0
99 67 142 0
97 -65 -143 0
65 -97 -143 0
-97 -65 143 0
97 65 143 0
143 144 0
142 144 0
141 144 0
140 144 0
139 144 0
138 144 0
137 144 0
136 144 0
135 144 0
134 144 0
133 144 0
132 144 0
131 144 0
130 144 0
129 144 0
128 144 0
127 144 0
126 144 0
-142 -131 -126 -141 -144 -128 -129 -137 -133 -139 -140 -136 -135 -134 -143 -138 -130 -132 -127 0
63 145 0
61 145 0
59 145 0
57 145 0
-63 -61 -59 -57 -145 0
65 -145 -146 0
-65 145 -146 0
146 -65 -145 0
65 145 146 0
3 147 0
-1 147 0
-13 147 0
-3 1 13 -147 0
65 -147 -148 0
146 147 -148 0
-65 -147 148 0
-146 147 148 0
65 146 -148 0
-65 -146 148 0
33 -148 -149 0
-33 148 -149 0
149 -33 -148 0
33 148 149 0
-1 150 0
-13 150 0
-23 150 0
1 13 23 -150 0
-15 150 -151 0
15 -150 -151 0
-15 -150 151 0
15 150 151 0
63 152 0
61 152 0
59 152 0
57 152 0
73 152 0
69 152 0
71 152 0
67 152 0
65 152 0
-63 -61 -59 -57 -73 -69 -71 -67 -65 -152 0
75 -152 -153 0
-75 152 -153 0
153 -75 -152 0
75 152 153 0
75 -147 -154 0
147 153 -154 0
-75 -147 154 0
147 -153 154 0
75 153 -154 0
-75 -153 154 0
43 -154 -155 0
-43 154 -155 0
155 -43 -154 0
43 154 155 0
59 156 0
57 156 0
-59 -57 -156 0
61 -156 -157 0
-61 156 -157 0
157 -61 -156 0
61 156 157 0
61 -147 -158 0
147 157 -158 0
-61 -147 158 0
147 -157 158 0
61 157 -158 0
-61 -157 158 0
29 -158 -159 0
-29 158 -159 0
159 -29 -158 0
29 158 159 0
63 160 0
61 160 0
59 160 0
57 160 0
65 160 0
-63 -61 -59 -57 -65 -160 0
67 -160 -161 0
-67 160 -161 0
161 -67 -160 0
67 160 161 0
67 -147 -162 0
147 161 -162 0
-67 -147 162 0
147 -161 162 0
67 161 -162 0
-67 -161 162 0
35 -162 -163 0
-35 162 -163 0
163 -35 -162 0
35 162 163 0
27 164 0
39 164 0
41 164 0
29 164 0
35 164 0
33 164 0
37 164 0
31 164 0
25 164 0
43 164 0
-27 -39 -41 -29 -35 -33 -37 -31 -25 -43 -164 0
45 -164 -165 0
-45 164 -165 0
165 -45 -164 0
45 164 165 0
-1 166 0
-13 166 0
15 166 0
1 13 -15 -166 0
45 -166 -167 0
165 166 -167 0
-45 -166 167 0
-165 166 167 0
45 165 -167 0
-45 -165 167 0
109 -167 -168 0
-109 167 -168 0
168 -109 -167 0
109 167 168 0
63 169 0
61 169 0
59 169 0
57 169 0
69 169 0
67 169 0
65 169 0
-63 -61 -59 -57 -69 -67 -65 -169 0
71 -169 -170 0
-71 169 -170 0
170 -71 -169 0
71 169 170 0
71 -147 -171 0
147 170 -171 0
-71 -147 171 0
147 -170 171 0
71 170 -171 0
-71 -170 171 0
39 -171 -172 0
-39 171 -172 0
172 -39 -171 0
39 171 172 0
63 173 0
61 173 0
59 173 0
57 173 0
67 173 0
65 173 0
-63 -61 -59 -57 -67 -65 -173 0
69 -173 -174 0
-69 173 -174 0
174 -69 -173 0
69 173 174 0
69 -147 -175 0
147 174 -175 0
-69 -147 175 0
147 -174 175 0
69 174 -175 0
-69 -174 175 0
37 -175 -176 0
-37 175 -176 0
176 -37 -175 0
37 175 176 0
-1 177 0
-11 177 0
-13 177 0
1 11 13 -177 0
-3 177 -178 0
3 -177 -178 0
-3 -177 178 0
3 177 178 0
63 179 0
61 179 0
59 179 0
57 179 0
69 179 0
71 179 0
67 179 0
65 179 0
-63 -61 -59 -57 -69 -71 -67 -65 -179 0
73 -179 -180 0
-73 179 -180 0
180 -73 -179 0
73 179 180 0
73 -147 -181 0
147 180 -181 0
-73 -147 181 0
147 -180 181 0
73 180 -181 0
-73 -180 181 0
41 -181 -182 0
-41 181 -182 0
182 -41 -181 0
41 181 182 0
27 183 0
29 183 0
25 183 0
-27 -29 -25 -183 0
31 -183 -184 0
-31 183 -184 0
184 -31 -183 0
31 183 184 0
31 -166 -185 0
166 184 -185 0
-31 -166 185 0
166 -184 185 0
31 184 -185 0
-31 -184 185 0
95 -185 -186 0
-95 185 -186 0
186 -95 -185 0
95 185 186 0
27 187 0
39 187 0
41 187 0
29 187 0
35 187 0
33 187 0
37 187 0
31 187 0
25 187 0
-27 -39 -41 -29 -35 -33 -37 -31 -25 -187 0
43 -187 -188 0
-43 187 -188 0
188 -43 -187 0
43 187 188 0
43 -166 -189 0
166 188 -189 0
-43 -166 189 0
166 -188 189 0
43 188 -189 0
-43 -188 189 0
107 -189 -190 0
-107 189 -190 0
190 -107 -189 0
107 189 190 0
27 191 0
25 191 0
-27 -25 -191 0
29 -191 -192 0
-29 191 -192 0
192 -29 -191 0
29 191 192 0
29 -166 -193 0
166 192 -193 0
-29 -166 193 0
166 -192 193 0
29 192 -193 0
-29 -192 193 0
93 -193 -194 0
-93 193 -194 0
194 -93 -193 0
93 193 194 0
27 195 0
29 195 0
31 195 0
25 195 0
-27 -29 -31 -25 -195 0
33 -195 -196 0
-33 195 -196 0
196 -33 -195 0
33 195 196 0
33 -166 -197 0
166 196 -197 0
-33 -166 197 0
166 -196 197 0
33 196 -197 0
-33 -196 197 0
97 -197 -198 0
-97 197 -198 0
198 -97 -197 0
97 197 198 0
63 199 0
61 199 0
59 199 0
57 199 0
75 199 0
79 199 0
77 199 0
73 199 0
69 199 0
71 199 0
67 199 0
65 199 0
81 199 0
-63 -61 -59 -57 -75 -79 -77 -73 -69 -71 -67 -65 -81 -199 0
83 -199 -200 0
-83 199 -200 0
200 -83 -199 0
83 199 200 0
83 -147 -201 0
147 200 -201 0
-83 -147 201 0
147 -200 201 0
83 200 -201 0
-83 -200 201 0
51 -201 -202 0
-51 201 -202 0
202 -51 -201 0
51 201 202 0
63 203 0
61 203 0
59 203 0
57 203 0
75 203 0
77 203 0
73 203 0
69 203 0
71 203 0
67 203 0
65 203 0
-63 -61 -59 -57 -75 -77 -73 -69 -71 -67 -65 -203 0
79 -203 -204 0
-79 203 -204 0
204 -79 -203 0
79 203 204 0
79 -147 -205 0
147 204 -205 0
-79 -147 205 0
147 -204 205 0
79 204 -205 0
-79 -204 205 0
47 -205 -206 0
-47 205 -206 0
206 -47 -205 0
47 205 206 0
25 89 166 -207 0
-89 -25 166 -207 0
25 -89 -166 -207 0
-25 89 -166 -207 0
-89 -25 -166 207 0
25 89 -166 207 0
-25 89 166 207 0
25 -89 166 207 0
27 208 0
39 208 0
41 208 0
29 208 0
35 208 0
47 208 0
33 208 0
37 208 0
31 208 0
25 208 0
45 208 0
43 208 0
-27 -39 -41 -29 -35 -47 -33 -37 -31 -25 -45 -43 -208 0
49 -208 -209 0
-49 208 -209 0
209 -49 -208 0
49 208 209 0
49 -166 -210 0
166 209 -210 0
-49 -166 210 0
166 -209 210 0
49 209 -210 0
-49 -209 210 0
113 -210 -211 0
-113 210 -211 0
211 -113 -210 0
113 210 211 0
27 212 0
39 212 0
41 212 0
29 212 0
35 212 0
47 212 0
33 212 0
37 212 0
31 212 0
49 212 0
25 212 0
45 212 0
43 212 0
-27 -39 -41 -29 -35 -47 -33 -37 -31 -49 -25 -45 -43 -212 0
51 -212 -213 0
-51 212 -213 0
213 -51 -212 0
51 212 213 0
51 -166 -214 0
166 213 -214 0
-51 -166 214 0
166 -213 214 0
51 213 -214 0
-51 -213 214 0
115 -214 -215 0
-115 214 -215 0
215 -115 -214 0
115 214 215 0
27 216 0
29 216 0
35 216 0
33 216 0
37 216 0
31 216 0
25 216 0
-27 -29 -35 -33 -37 -31 -25 -216 0
39 -216 -217 0
-39 216 -217 0
217 -39 -216 0
39 216 217 0
39 -166 -218 0
166 217 -218 0
-39 -166 218 0
166 -217 218 0
39 217 -218 0
-39 -217 218 0
103 -218 -219 0
-103 218 -219 0
219 -103 -218 0
103 218 219 0
27 220 0
39 220 0
29 220 0
35 220 0
33 220 0
37 220 0
31 220 0
25 220 0
-27 -39 -29 -35 -33 -37 -31 -25 -220 0
41 -220 -221 0
-41 220 -221 0
221 -41 -220 0
41 220 221 0
41 -166 -222 0
166 221 -222 0
-41 -166 222 0
166 -221 222 0
41 221 -222 0
-41 -221 222 0
105 -222 -223 0
-105 222 -223 0
223 -105 -222 0
105 222 223 0
-57 59 -224 0
-59 57 -224 0
-59 -57 224 0
57 59 224 0
59 -147 -225 0
147 -224 -225 0
-59 -147 225 0
147 224 225 0
59 -224 -225 0
-59 224 225 0
27 -225 -226 0
-27 225 -226 0
226 -27 -225 0
27 225 226 0
63 227 0
61 227 0
59 227 0
57 227 0
75 227 0
79 227 0
77 227 0
73 227 0
69 227 0
71 227 0
67 227 0
65 227 0
-63 -61 -59 -57 -75 -79 -77 -73 -69 -71 -67 -65 -227 0
81 -227 -228 0
-81 227 -228 0
228 -81 -227 0
81 227 228 0
81 -147 -229 0
147 228 -229 0
-81 -147 229 0
147 -228 229 0
81 228 -229 0
-81 -228 229 0
49 -229 -230 0
-49 229 -230 0
230 -49 -229 0
49 229 230 0
27 231 0
29 231 0
35 231 0
33 231 0
31 231 0
25 231 0
-27 -29 -35 -33 -31 -25 -231 0
37 -231 -232 0
-37 231 -232 0
232 -37 -231 0
37 231 232 0
37 -166 -233 0
166 232 -233 0
-37 -166 233 0
166 -232 233 0
37 232 -233 0
-37 -232 233 0
101 -233 -234 0
-101 233 -234 0
234 -101 -233 0
101 233 234 0
27 235 0
39 235 0
41 235 0
29 235 0
35 235 0
47 235 0
33 235 0
37 235 0
31 235 0
51 235 0
49 235 0
25 235 0
53 235 0
45 235 0
43 235 0
-27 -39 -41 -29 -35 -47 -33 -37 -31 -51 -49 -25 -53 -45 -43 -235 0
55 -235 -236 0
-55 235 -236 0
236 -55 -235 0
55 235 236 0
55 -166 -237 0
166 236 -237 0
-55 -166 237 0
166 -236 237 0
55 236 -237 0
-55 -236 237 0
119 -237 -238 0
-119 237 -238 0
238 -119 -237 0
119 237 238 0
27 239 0
39 239 0
41 239 0
29 239 0
35 239 0
33 239 0
37 239 0
31 239 0
25 239 0
45 239 0
43 239 0
-27 -39 -41 -29 -35 -33 -37 -31 -25 -45 -43 -239 0
47 -239 -240 0
-47 239 -240 0
240 -47 -239 0
47 239 240 0
47 -166 -241 0
166 240 -241 0
-47 -166 241 0
166 -240 241 0
47 240 -241 0
-47 -240 241 0
111 -241 -242 0
-111 241 -242 0
242 -111 -241 0
111 241 242 0
27 -25 -243 0
-27 25 -243 0
-27 -25 243 0
27 25 243 0
27 -166 -244 0
166 -243 -244 0
-27 -166 244 0
166 243 244 0
27 -243 -244 0
-27 243 244 0
91 -244 -245 0
-91 244 -245 0
245 -91 -244 0
91 244 245 0
27 246 0
39 246 0
41 246 0
29 246 0
35 246 0
47 246 0
33 246 0
37 246 0
31 246 0
51 246 0
49 246 0
25 246 0
45 246 0
43 246 0
-27 -39 -41 -29 -35 -47 -33 -37 -31 -51 -49 -25 -45 -43 -246 0
53 -246 -247 0
-53 246 -247 0
247 -53 -246 0
53 246 247 0
53 -166 -248 0
166 247 -248 0
-53 -166 248 0
166 -247 248 0
53 247 -248 0
-53 -247 248 0
117 -248 -249 0
-117 248 -249 0
249 -117 -248 0
117 248 249 0
63 250 0
61 250 0
59 250 0
57 250 0
75 250 0
83 250 0
79 250 0
77 250 0
73 250 0
69 250 0
71 250 0
67 250 0
65 250 0
81 250 0
-63 -61 -59 -57 -75 -83 -79 -77 -73 -69 -71 -67 -65 -81 -250 0
85 -250 -251 0
-85 250 -251 0
251 -85 -250 0
85 250 251 0
85 -147 -252 0
147 251 -252 0
-85 -147 252 0
147 -251 252 0
85 251 -252 0
-85 -251 252 0
53 -252 -253 0
-53 252 -253 0
253 -53 -252 0
53 252 253 0
61 254 0
59 254 0
57 254 0
-61 -59 -57 -254 0
63 -254 -255 0
-63 254 -255 0
255 -63 -254 0
63 254 255 0
63 -147 -256 0
147 255 -256 0
-63 -147 256 0
147 -255 256 0
63 255 -256 0
-63 -255 256 0
31 -256 -257 0
-31 256 -257 0
257 -31 -256 0
31 256 257 0
57 25 147 -258 0
-57 -25 147 -258 0
57 -25 -147 -258 0
-57 25 -147 -258 0
-57 -25 -147 258 0
57 25 -147 258 0
-57 25 147 258 0
57 -25 147 258 0
63 259 0
61 259 0
59 259 0
57 259 0
75 259 0
85 259 0
83 259 0
79 259 0
77 259 0
73 259 0
69 259 0
71 259 0
67 259 0
65 259 0
81 259 0
-63 -61 -59 -57 -75 -85 -83 -79 -77 -73 -69 -71 -67 -65 -81 -259 0
87 -259 -260 0
-87 259 -260 0
260 -87 -259 0
87 259 260 0
87 -147 -261 0
147 260 -261 0
-87 -147 261 0
147 -260 261 0
87 260 -261 0
-87 -260 261 0
55 -261 -262 0
-55 261 -262 0
262 -55 -261 0
55 261 262 0
27 263 0
29 263 0
33 263 0
31 263 0
25 263 0
-27 -29 -33 -31 -25 -263 0
35 -263 -264 0
-35 263 -264 0
264 -35 -263 0
35 263 264 0
35 -166 -265 0
166 264 -265 0
-35 -166 265 0
166 -264 265 0
35 264 -265 0
-35 -264 265 0
99 -265 -266 0
-99 265 -266 0
266 -99 -265 0
99 265 266 0
63 267 0
61 267 0
59 267 0
57 267 0
75 267 0
73 267 0
69 267 0
71 267 0
67 267 0
65 267 0
-63 -61 -59 -57 -75 -73 -69 -71 -67 -65 -267 0
77 -267 -268 0
-77 267 -268 0
268 -77 -267 0
77 267 268 0
77 -147 -269 0
147 268 -269 0
-77 -147 269 0
147 -268 269 0
77 268 -269 0
-77 -268 269 0
45 -269 -270 0
-45 269 -270 0
270 -45 -269 0
45 269 270 0
270 271 0
266 271 0
262 271 0
258 271 0
257 271 0
253 271 0
249 271 0
245 271 0
242 271 0
238 271 0
234 271 0
230 271 0
226 271 0
223 271 0
219 271 0
215 271 0
211 271 0
207 271 0
206 271 0
202 271 0
198 271 0
194 271 0
190 271 0
186 271 0
182 271 0
-178 271 0
176 271 0
172 271 0
168 271 0
163 271 0
159 271 0
155 271 0
-151 271 0
149 271 0
-149 151 -155 -159 -163 -168 -172 -176 178 -182 -186 -190 -194 -198 -202 -206 -207 -211 -215 -219 -223 -226 -230 -234 -238 -242 -245 -249 -253 -257 -258 -262 -266 -270 -271 0
-121 -271 0
121 -144 0
